40
    67    98    20    98    91    60    55    71    41    60    18    12    39    32    31    65    35    59    96    81     5    80    91    10    58    86    76     8    25    22    85    34    71    83    31    49    84    22     8    17
     4     3     1     4     7     5     8     3    10     9    10     1     4     6     9     3     1     2     2     3     8     9     8     8     4     5    10     5     4     4     4     2     2     5     1     8     2     5     2     4
   966   151   262   477   980   323     0  1172     0   848  1200   187     0  1148  1030   826   522     0     0   135     0  1206   150     0     0    36     0   243  1007     0     0     0  1244   413   503     0     0   882   192   603
